# Solution for model r10_t18_m5_6
# Finished Task: 16 / 18
# Makespan: 618.0, Total Distance: 154.0, Total Time: 2.1787
# R O S F
0 0 26 43.0 43.0
1 1 11 0.0 0.0
2 2 23 0.0 0.0
3 3 20 52.0 52.0
4 4 21 10.0 10.0
5 5 13 20.0 20.0
6 6 15 42.0 42.0
7 7 10 20.0 20.0
8 8 16 30.0 30.0
9 9 -1 0.0 0.0
10 7 27 544.0 582.0
11 1 17 228.0 250.0
12 -1 -1 574.0 596.0
13 5 -1 134.0 162.0
14 8 18 385.0 420.0
15 6 -1 342.0 368.0
16 8 14 270.0 306.0
17 1 -1 345.0 376.0
18 8 22 440.0 463.0
19 -1 -1 596.0 618.0
20 3 25 347.0 377.0
21 4 24 401.0 437.0
22 8 -1 488.0 521.0
23 2 -1 456.0 480.0
24 4 -1 437.0 473.0
25 3 -1 377.0 401.0
26 0 -1 526.0 547.0
27 7 -1 598.0 618.0
